42441.7
42441.7
42270
41361.9
41361.9
41361.9
41361.9
41304.6
40729.6
40729.6
40729.6
40729.6
40729.6
40519.9
40519.9
40110.1
40110.1
39468.2
39468.2
38953.6
38913.6
38913.6
38494.1
38461.6
38212.1
38212.1
37983.9
37983.9
37983.9
37608.1
37608.1
37608.1
37608.1
37487.9
37440.7
37070.5
37070.5
36965.5
36965.5
36734.8
36734.8
36431.9
35997.5
35997.5
35997.5
35997.5
35997.5
35997.5
35825.4
35825.4
35825.4
35621.1
35496.8
35430.8
35056.4
35056.4
35056.4
35056.4
34874.1
34728.7
34728.7
34728.7
34327.2
34327.2
34029
34029
33589.8
33589.8
33589.8
33462
33462
33462
33462
33462
33462
33462
33336.7
33336.7
32901.1
32901.1
32901.1
32901.1
32901.1
32901.1
32841.3
32841.3
32841.3
32841.3
32841.3
32604.1
32604.1
32604.1
32604.1
32604.1
32450.6
32450.6
32450.6
32378.6
32347.9
32304.4
